p cnf 196 1140
1 -86 0
1 -87 0
86 -86 0
87 -87 0
18 -92 0
18 -93 0
92 -92 0
93 -93 0
35 -98 0
35 -99 0
98 -98 0
99 -99 0
52 -104 0
52 -105 0
104 -104 0
105 -105 0
69 -110 0
69 -111 0
110 -110 0
111 -111 0
2 -86 0
2 -87 0
86 -86 0
87 -87 0
19 -92 0
19 -93 0
92 -92 0
93 -93 0
36 -98 0
36 -99 0
98 -98 0
99 -99 0
53 -104 0
53 -105 0
104 -104 0
105 -105 0
70 -110 0
70 -111 0
110 -110 0
111 -111 0
-3 -86 0
-3 -87 0
86 -86 0
87 -87 0
-20 -92 0
-20 -93 0
92 -92 0
93 -93 0
-37 -98 0
-37 -99 0
98 -98 0
99 -99 0
-54 -104 0
-54 -105 0
104 -104 0
105 -105 0
-71 -110 0
-71 -111 0
110 -110 0
111 -111 0
4 -86 0
4 -87 0
86 -86 0
87 -87 0
21 -92 0
21 -93 0
92 -92 0
93 -93 0
38 -98 0
38 -99 0
98 -98 0
99 -99 0
55 -104 0
55 -105 0
104 -104 0
105 -105 0
72 -110 0
72 -111 0
110 -110 0
111 -111 0
5 -86 0
5 -87 0
86 -86 0
87 -87 0
22 -92 0
22 -93 0
92 -92 0
93 -93 0
39 -98 0
39 -99 0
98 -98 0
99 -99 0
56 -104 0
56 -105 0
104 -104 0
105 -105 0
73 -110 0
73 -111 0
110 -110 0
111 -111 0
6 -86 0
6 -87 0
86 -86 0
87 -87 0
23 -92 0
23 -93 0
92 -92 0
93 -93 0
40 -98 0
40 -99 0
98 -98 0
99 -99 0
57 -104 0
57 -105 0
104 -104 0
105 -105 0
74 -110 0
74 -111 0
110 -110 0
111 -111 0
7 -86 0
7 -87 0
86 -86 0
87 -87 0
24 -92 0
24 -93 0
92 -92 0
93 -93 0
41 -98 0
41 -99 0
98 -98 0
99 -99 0
58 -104 0
58 -105 0
104 -104 0
105 -105 0
75 -110 0
75 -111 0
110 -110 0
111 -111 0
8 -86 0
8 -87 0
86 -86 0
87 -87 0
25 -92 0
25 -93 0
92 -92 0
93 -93 0
42 -98 0
42 -99 0
98 -98 0
99 -99 0
59 -104 0
59 -105 0
104 -104 0
105 -105 0
76 -110 0
76 -111 0
110 -110 0
111 -111 0
9 -116 -86 0
-9 116 -86 0
9 116 -87 0
-9 -116 -87 0
26 -116 -92 0
-26 116 -92 0
26 116 -93 0
-26 -116 -93 0
43 -116 -98 0
-43 116 -98 0
43 116 -99 0
-43 -116 -99 0
60 -116 -104 0
-60 116 -104 0
60 116 -105 0
-60 -116 -105 0
77 -116 -110 0
-77 116 -110 0
77 116 -111 0
-77 -116 -111 0
-10 -86 0
-10 -87 0
86 -86 0
87 -87 0
-27 -92 0
-27 -93 0
92 -92 0
93 -93 0
-44 -98 0
-44 -99 0
98 -98 0
99 -99 0
-61 -104 0
-61 -105 0
104 -104 0
105 -105 0
-78 -110 0
-78 -111 0
110 -110 0
111 -111 0
11 -117 -86 0
-11 117 -86 0
11 117 -87 0
-11 -117 -87 0
28 -117 -92 0
-28 117 -92 0
28 117 -93 0
-28 -117 -93 0
45 -117 -98 0
-45 117 -98 0
45 117 -99 0
-45 -117 -99 0
62 -117 -104 0
-62 117 -104 0
62 117 -105 0
-62 -117 -105 0
79 -117 -110 0
-79 117 -110 0
79 117 -111 0
-79 -117 -111 0
12 -118 -86 0
-12 118 -86 0
12 118 -87 0
-12 -118 -87 0
29 -118 -92 0
-29 118 -92 0
29 118 -93 0
-29 -118 -93 0
46 -118 -98 0
-46 118 -98 0
46 118 -99 0
-46 -118 -99 0
63 -118 -104 0
-63 118 -104 0
63 118 -105 0
-63 -118 -105 0
80 -118 -110 0
-80 118 -110 0
80 118 -111 0
-80 -118 -111 0
13 -86 0
13 -87 0
86 -86 0
87 -87 0
30 -92 0
30 -93 0
92 -92 0
93 -93 0
47 -98 0
47 -99 0
98 -98 0
99 -99 0
64 -104 0
64 -105 0
104 -104 0
105 -105 0
81 -110 0
81 -111 0
110 -110 0
111 -111 0
14 -119 -86 0
-14 119 -86 0
14 119 -87 0
-14 -119 -87 0
31 -119 -92 0
-31 119 -92 0
31 119 -93 0
-31 -119 -93 0
48 -119 -98 0
-48 119 -98 0
48 119 -99 0
-48 -119 -99 0
65 -119 -104 0
-65 119 -104 0
65 119 -105 0
-65 -119 -105 0
82 -119 -110 0
-82 119 -110 0
82 119 -111 0
-82 -119 -111 0
15 -120 -86 0
-15 120 -86 0
15 120 -87 0
-15 -120 -87 0
32 -120 -92 0
-32 120 -92 0
32 120 -93 0
-32 -120 -93 0
49 -120 -98 0
-49 120 -98 0
49 120 -99 0
-49 -120 -99 0
66 -120 -104 0
-66 120 -104 0
66 120 -105 0
-66 -120 -105 0
83 -120 -110 0
-83 120 -110 0
83 120 -111 0
-83 -120 -111 0
16 -121 -86 0
-16 121 -86 0
16 121 -87 0
-16 -121 -87 0
33 -121 -92 0
-33 121 -92 0
33 121 -93 0
-33 -121 -93 0
50 -121 -98 0
-50 121 -98 0
50 121 -99 0
-50 -121 -99 0
67 -121 -104 0
-67 121 -104 0
67 121 -105 0
-67 -121 -105 0
84 -121 -110 0
-84 121 -110 0
84 121 -111 0
-84 -121 -111 0
17 -86 0
17 -87 0
86 -86 0
87 -87 0
34 -92 0
34 -93 0
92 -92 0
93 -93 0
51 -98 0
51 -99 0
98 -98 0
99 -99 0
68 -104 0
68 -105 0
104 -104 0
105 -105 0
85 -110 0
85 -111 0
110 -110 0
111 -111 0
-167 86 0
167 -86 0
-168 87 0
167 -87 0
-167 -86 0
-168 -87 0
-173 86 167 0
173 -86 0
173 -167 0
-174 87 168 0
174 -87 0
174 -168 0
-173 -92 0
-174 -93 0
-179 92 173 0
179 -92 0
179 -173 0
-180 93 174 0
180 -93 0
180 -174 0
-179 -98 0
-180 -99 0
-185 98 179 0
185 -98 0
185 -179 0
-186 99 180 0
186 -99 0
186 -180 0
-185 -104 0
-186 -105 0
-191 104 185 0
191 -104 0
191 -185 0
-192 105 186 0
192 -105 0
192 -186 0
-191 -110 0
-192 -111 0
191 0
192 0
1 -88 0
1 -89 0
88 -88 0
89 -89 0
18 -94 0
18 -95 0
94 -94 0
95 -95 0
35 -100 0
35 -101 0
100 -100 0
101 -101 0
52 -106 0
52 -107 0
106 -106 0
107 -107 0
69 -112 0
69 -113 0
112 -112 0
113 -113 0
2 -88 0
2 -89 0
88 -88 0
89 -89 0
19 -94 0
19 -95 0
94 -94 0
95 -95 0
36 -100 0
36 -101 0
100 -100 0
101 -101 0
53 -106 0
53 -107 0
106 -106 0
107 -107 0
70 -112 0
70 -113 0
112 -112 0
113 -113 0
3 -88 0
3 -89 0
88 -88 0
89 -89 0
20 -94 0
20 -95 0
94 -94 0
95 -95 0
37 -100 0
37 -101 0
100 -100 0
101 -101 0
54 -106 0
54 -107 0
106 -106 0
107 -107 0
71 -112 0
71 -113 0
112 -112 0
113 -113 0
4 -88 0
4 -89 0
88 -88 0
89 -89 0
21 -94 0
21 -95 0
94 -94 0
95 -95 0
38 -100 0
38 -101 0
100 -100 0
101 -101 0
55 -106 0
55 -107 0
106 -106 0
107 -107 0
72 -112 0
72 -113 0
112 -112 0
113 -113 0
5 -122 -88 0
-5 122 -88 0
5 122 -89 0
-5 -122 -89 0
22 -122 -94 0
-22 122 -94 0
22 122 -95 0
-22 -122 -95 0
39 -122 -100 0
-39 122 -100 0
39 122 -101 0
-39 -122 -101 0
56 -122 -106 0
-56 122 -106 0
56 122 -107 0
-56 -122 -107 0
73 -122 -112 0
-73 122 -112 0
73 122 -113 0
-73 -122 -113 0
6 -88 0
6 -89 0
88 -88 0
89 -89 0
23 -94 0
23 -95 0
94 -94 0
95 -95 0
40 -100 0
40 -101 0
100 -100 0
101 -101 0
57 -106 0
57 -107 0
106 -106 0
107 -107 0
74 -112 0
74 -113 0
112 -112 0
113 -113 0
7 -123 -88 0
-7 123 -88 0
7 123 -89 0
-7 -123 -89 0
24 -123 -94 0
-24 123 -94 0
24 123 -95 0
-24 -123 -95 0
41 -123 -100 0
-41 123 -100 0
41 123 -101 0
-41 -123 -101 0
58 -123 -106 0
-58 123 -106 0
58 123 -107 0
-58 -123 -107 0
75 -123 -112 0
-75 123 -112 0
75 123 -113 0
-75 -123 -113 0
8 -124 -88 0
-8 124 -88 0
8 124 -89 0
-8 -124 -89 0
25 -124 -94 0
-25 124 -94 0
25 124 -95 0
-25 -124 -95 0
42 -124 -100 0
-42 124 -100 0
42 124 -101 0
-42 -124 -101 0
59 -124 -106 0
-59 124 -106 0
59 124 -107 0
-59 -124 -107 0
76 -124 -112 0
-76 124 -112 0
76 124 -113 0
-76 -124 -113 0
9 -125 -88 0
-9 125 -88 0
9 125 -89 0
-9 -125 -89 0
26 -125 -94 0
-26 125 -94 0
26 125 -95 0
-26 -125 -95 0
43 -125 -100 0
-43 125 -100 0
43 125 -101 0
-43 -125 -101 0
60 -125 -106 0
-60 125 -106 0
60 125 -107 0
-60 -125 -107 0
77 -125 -112 0
-77 125 -112 0
77 125 -113 0
-77 -125 -113 0
10 -126 -88 0
-10 126 -88 0
10 126 -89 0
-10 -126 -89 0
27 -126 -94 0
-27 126 -94 0
27 126 -95 0
-27 -126 -95 0
44 -126 -100 0
-44 126 -100 0
44 126 -101 0
-44 -126 -101 0
61 -126 -106 0
-61 126 -106 0
61 126 -107 0
-61 -126 -107 0
78 -126 -112 0
-78 126 -112 0
78 126 -113 0
-78 -126 -113 0
-11 -88 0
-11 -89 0
88 -88 0
89 -89 0
-28 -94 0
-28 -95 0
94 -94 0
95 -95 0
-45 -100 0
-45 -101 0
100 -100 0
101 -101 0
-62 -106 0
-62 -107 0
106 -106 0
107 -107 0
-79 -112 0
-79 -113 0
112 -112 0
113 -113 0
12 -127 -88 0
-12 127 -88 0
12 127 -89 0
-12 -127 -89 0
29 -127 -94 0
-29 127 -94 0
29 127 -95 0
-29 -127 -95 0
46 -127 -100 0
-46 127 -100 0
46 127 -101 0
-46 -127 -101 0
63 -127 -106 0
-63 127 -106 0
63 127 -107 0
-63 -127 -107 0
80 -127 -112 0
-80 127 -112 0
80 127 -113 0
-80 -127 -113 0
13 -88 0
13 -89 0
88 -88 0
89 -89 0
30 -94 0
30 -95 0
94 -94 0
95 -95 0
47 -100 0
47 -101 0
100 -100 0
101 -101 0
64 -106 0
64 -107 0
106 -106 0
107 -107 0
81 -112 0
81 -113 0
112 -112 0
113 -113 0
14 -128 -88 0
-14 128 -88 0
14 128 -89 0
-14 -128 -89 0
31 -128 -94 0
-31 128 -94 0
31 128 -95 0
-31 -128 -95 0
48 -128 -100 0
-48 128 -100 0
48 128 -101 0
-48 -128 -101 0
65 -128 -106 0
-65 128 -106 0
65 128 -107 0
-65 -128 -107 0
82 -128 -112 0
-82 128 -112 0
82 128 -113 0
-82 -128 -113 0
15 -88 0
15 -89 0
88 -88 0
89 -89 0
32 -94 0
32 -95 0
94 -94 0
95 -95 0
49 -100 0
49 -101 0
100 -100 0
101 -101 0
66 -106 0
66 -107 0
106 -106 0
107 -107 0
83 -112 0
83 -113 0
112 -112 0
113 -113 0
16 -88 0
16 -89 0
88 -88 0
89 -89 0
33 -94 0
33 -95 0
94 -94 0
95 -95 0
50 -100 0
50 -101 0
100 -100 0
101 -101 0
67 -106 0
67 -107 0
106 -106 0
107 -107 0
84 -112 0
84 -113 0
112 -112 0
113 -113 0
17 -88 0
17 -89 0
88 -88 0
89 -89 0
34 -94 0
34 -95 0
94 -94 0
95 -95 0
51 -100 0
51 -101 0
100 -100 0
101 -101 0
68 -106 0
68 -107 0
106 -106 0
107 -107 0
85 -112 0
85 -113 0
112 -112 0
113 -113 0
-169 88 0
169 -88 0
-170 89 0
169 -89 0
-169 -88 0
-170 -89 0
-175 88 169 0
175 -88 0
175 -169 0
-176 89 170 0
176 -89 0
176 -170 0
-175 -94 0
-176 -95 0
-181 94 175 0
181 -94 0
181 -175 0
-182 95 176 0
182 -95 0
182 -176 0
-181 -100 0
-182 -101 0
-187 100 181 0
187 -100 0
187 -181 0
-188 101 182 0
188 -101 0
188 -182 0
-187 -106 0
-188 -107 0
-193 106 187 0
193 -106 0
193 -187 0
-194 107 188 0
194 -107 0
194 -188 0
-193 -112 0
-194 -113 0
193 0
194 0
1 -129 -90 0
-1 129 -90 0
1 129 -91 0
-1 -129 -91 0
18 -129 -96 0
-18 129 -96 0
18 129 -97 0
-18 -129 -97 0
35 -129 -102 0
-35 129 -102 0
35 129 -103 0
-35 -129 -103 0
52 -129 -108 0
-52 129 -108 0
52 129 -109 0
-52 -129 -109 0
69 -129 -114 0
-69 129 -114 0
69 129 -115 0
-69 -129 -115 0
2 -90 0
2 -91 0
90 -90 0
91 -91 0
19 -96 0
19 -97 0
96 -96 0
97 -97 0
36 -102 0
36 -103 0
102 -102 0
103 -103 0
53 -108 0
53 -109 0
108 -108 0
109 -109 0
70 -114 0
70 -115 0
114 -114 0
115 -115 0
3 -130 -90 0
-3 130 -90 0
3 130 -91 0
-3 -130 -91 0
20 -130 -96 0
-20 130 -96 0
20 130 -97 0
-20 -130 -97 0
37 -130 -102 0
-37 130 -102 0
37 130 -103 0
-37 -130 -103 0
54 -130 -108 0
-54 130 -108 0
54 130 -109 0
-54 -130 -109 0
71 -130 -114 0
-71 130 -114 0
71 130 -115 0
-71 -130 -115 0
4 -131 -90 0
-4 131 -90 0
4 131 -91 0
-4 -131 -91 0
21 -131 -96 0
-21 131 -96 0
21 131 -97 0
-21 -131 -97 0
38 -131 -102 0
-38 131 -102 0
38 131 -103 0
-38 -131 -103 0
55 -131 -108 0
-55 131 -108 0
55 131 -109 0
-55 -131 -109 0
72 -131 -114 0
-72 131 -114 0
72 131 -115 0
-72 -131 -115 0
5 -90 0
5 -91 0
90 -90 0
91 -91 0
22 -96 0
22 -97 0
96 -96 0
97 -97 0
39 -102 0
39 -103 0
102 -102 0
103 -103 0
56 -108 0
56 -109 0
108 -108 0
109 -109 0
73 -114 0
73 -115 0
114 -114 0
115 -115 0
6 -90 0
6 -91 0
90 -90 0
91 -91 0
23 -96 0
23 -97 0
96 -96 0
97 -97 0
40 -102 0
40 -103 0
102 -102 0
103 -103 0
57 -108 0
57 -109 0
108 -108 0
109 -109 0
74 -114 0
74 -115 0
114 -114 0
115 -115 0
7 -90 0
7 -91 0
90 -90 0
91 -91 0
24 -96 0
24 -97 0
96 -96 0
97 -97 0
41 -102 0
41 -103 0
102 -102 0
103 -103 0
58 -108 0
58 -109 0
108 -108 0
109 -109 0
75 -114 0
75 -115 0
114 -114 0
115 -115 0
8 -90 0
8 -91 0
90 -90 0
91 -91 0
25 -96 0
25 -97 0
96 -96 0
97 -97 0
42 -102 0
42 -103 0
102 -102 0
103 -103 0
59 -108 0
59 -109 0
108 -108 0
109 -109 0
76 -114 0
76 -115 0
114 -114 0
115 -115 0
9 -90 0
9 -91 0
90 -90 0
91 -91 0
26 -96 0
26 -97 0
96 -96 0
97 -97 0
43 -102 0
43 -103 0
102 -102 0
103 -103 0
60 -108 0
60 -109 0
108 -108 0
109 -109 0
77 -114 0
77 -115 0
114 -114 0
115 -115 0
-10 -90 0
-10 -91 0
90 -90 0
91 -91 0
-27 -96 0
-27 -97 0
96 -96 0
97 -97 0
-44 -102 0
-44 -103 0
102 -102 0
103 -103 0
-61 -108 0
-61 -109 0
108 -108 0
109 -109 0
-78 -114 0
-78 -115 0
114 -114 0
115 -115 0
11 -90 0
11 -91 0
90 -90 0
91 -91 0
28 -96 0
28 -97 0
96 -96 0
97 -97 0
45 -102 0
45 -103 0
102 -102 0
103 -103 0
62 -108 0
62 -109 0
108 -108 0
109 -109 0
79 -114 0
79 -115 0
114 -114 0
115 -115 0
12 -90 0
12 -91 0
90 -90 0
91 -91 0
29 -96 0
29 -97 0
96 -96 0
97 -97 0
46 -102 0
46 -103 0
102 -102 0
103 -103 0
63 -108 0
63 -109 0
108 -108 0
109 -109 0
80 -114 0
80 -115 0
114 -114 0
115 -115 0
13 -90 0
13 -91 0
90 -90 0
91 -91 0
30 -96 0
30 -97 0
96 -96 0
97 -97 0
47 -102 0
47 -103 0
102 -102 0
103 -103 0
64 -108 0
64 -109 0
108 -108 0
109 -109 0
81 -114 0
81 -115 0
114 -114 0
115 -115 0
-14 -90 0
-14 -91 0
90 -90 0
91 -91 0
-31 -96 0
-31 -97 0
96 -96 0
97 -97 0
-48 -102 0
-48 -103 0
102 -102 0
103 -103 0
-65 -108 0
-65 -109 0
108 -108 0
109 -109 0
-82 -114 0
-82 -115 0
114 -114 0
115 -115 0
-15 -90 0
-15 -91 0
90 -90 0
91 -91 0
-32 -96 0
-32 -97 0
96 -96 0
97 -97 0
-49 -102 0
-49 -103 0
102 -102 0
103 -103 0
-66 -108 0
-66 -109 0
108 -108 0
109 -109 0
-83 -114 0
-83 -115 0
114 -114 0
115 -115 0
-16 -90 0
-16 -91 0
90 -90 0
91 -91 0
-33 -96 0
-33 -97 0
96 -96 0
97 -97 0
-50 -102 0
-50 -103 0
102 -102 0
103 -103 0
-67 -108 0
-67 -109 0
108 -108 0
109 -109 0
-84 -114 0
-84 -115 0
114 -114 0
115 -115 0
17 -90 0
17 -91 0
90 -90 0
91 -91 0
34 -96 0
34 -97 0
96 -96 0
97 -97 0
51 -102 0
51 -103 0
102 -102 0
103 -103 0
68 -108 0
68 -109 0
108 -108 0
109 -109 0
85 -114 0
85 -115 0
114 -114 0
115 -115 0
-171 90 0
171 -90 0
-172 91 0
171 -91 0
-171 -90 0
-172 -91 0
-177 90 171 0
177 -90 0
177 -171 0
-178 91 172 0
178 -91 0
178 -172 0
-177 -96 0
-178 -97 0
-183 96 177 0
183 -96 0
183 -177 0
-184 97 178 0
184 -97 0
184 -178 0
-183 -102 0
-184 -103 0
-189 102 183 0
189 -102 0
189 -183 0
-190 103 184 0
190 -103 0
190 -184 0
-189 -108 0
-190 -109 0
-195 108 189 0
195 -108 0
195 -189 0
-196 109 190 0
196 -109 0
196 -190 0
-195 -114 0
-196 -115 0
195 0
196 0
